c pcminimize - minimizing a CNF with respect to propagation completeness by iterative removing of absorbed clauses.
c Petr Kucera, 2016-2021
c Version 2.7, revision 59, git hash 4910a71, date 2024-07-16 20:17:42 +0200
p cnf 487 893
251 -252 0
191 -252 0
1 -253 0
-191 -253 0
252 253 -254 0
254 -255 0
-205 -255 0
255 -256 0
84 -256 0
1 -257 0
-191 -257 0
257 -259 0
258 -259 0
259 -260 0
-84 -260 0
256 260 -261 0
-4 -262 0
80 -262 0
263 -264 0
-80 -264 0
262 264 -265 0
266 -268 0
267 -268 0
268 -269 0
149 -269 0
189 -270 0
-241 -270 0
270 -271 0
-149 -271 0
269 271 -272 0
261 -273 0
265 -273 0
272 -273 0
-111 -273 0
273 -274 0
243 -274 0
-205 -275 0
275 -276 0
84 -276 0
277 -278 0
205 -278 0
-205 -279 0
278 279 -280 0
280 -281 0
-84 -281 0
276 281 -282 0
4 -283 0
149 -283 0
-189 -283 0
282 -284 0
254 -284 0
283 -284 0
266 -284 0
284 -285 0
-243 -285 0
274 285 -286 0
287 -289 0
288 -289 0
289 -290 0
132 -290 0
118 -291 0
292 -293 0
-118 -293 0
291 293 -294 0
294 -295 0
-159 -295 0
295 -296 0
-132 -296 0
290 296 -297 0
298 -299 0
9 -299 0
-9 -300 0
299 300 -301 0
286 -302 0
297 -302 0
301 -302 0
44 -302 0
302 -303 0
60 -303 0
-205 -304 0
84 -304 0
258 -305 0
-84 -305 0
304 305 -306 0
266 -307 0
149 -307 0
-241 -308 0
-149 -308 0
307 308 -309 0
-111 -310 0
243 -310 0
306 -311 0
265 -311 0
309 -311 0
310 -311 0
311 -312 0
189 -312 0
306 -313 0
265 -313 0
-111 -313 0
313 -314 0
243 -314 0
4 -315 0
282 -316 0
315 -316 0
316 -317 0
-243 -317 0
314 317 -318 0
318 -319 0
149 -319 0
266 -319 0
319 -320 0
-189 -320 0
312 320 -321 0
1 -322 0
-9 -322 0
159 -322 0
-191 -322 0
321 -323 0
322 -323 0
323 -325 0
324 -325 0
325 -326 0
-60 -326 0
303 326 -327 0
328 -329 0
141 -329 0
170 -330 0
-141 -330 0
329 330 -331 0
68 -332 0
-187 -332 0
327 -334 0
331 -334 0
332 -334 0
333 -334 0
334 -335 0
85 -335 0
84 -336 0
-205 -336 0
265 -337 0
272 -337 0
336 -337 0
337 -338 0
243 -338 0
282 -339 0
283 -339 0
266 -339 0
339 -340 0
-243 -340 0
338 340 -341 0
-68 -342 0
72 -342 0
342 -343 0
142 -343 0
333 -345 0
344 -345 0
345 -346 0
-142 -346 0
343 346 -347 0
44 -348 0
60 -348 0
141 -348 0
191 -348 0
328 -349 0
251 -349 0
341 -350 0
347 -350 0
301 -350 0
297 -350 0
348 -350 0
349 -350 0
350 -352 0
351 -352 0
352 -353 0
-85 -353 0
355 -356 0
124 -356 0
-124 -357 0
248 -359 0
360 -361 0
-248 -361 0
-47 -363 0
-91 -363 0
-116 -363 0
-144 -363 0
-168 -363 0
-171 -363 0
-219 -363 0
364 -368 0
365 -368 0
366 -368 0
367 -368 0
354 -369 0
358 -369 0
362 -369 0
368 -369 0
-103 -371 0
25 -376 0
-205 -378 0
377 -378 0
378 -379 0
84 -379 0
-191 -380 0
258 -380 0
380 -381 0
-84 -381 0
379 381 -382 0
-47 -383 0
171 -383 0
230 -383 0
383 -385 0
384 -385 0
385 -386 0
103 -386 0
230 -387 0
384 -387 0
387 -388 0
171 -388 0
301 -389 0
-171 -389 0
388 389 -390 0
390 -392 0
391 -392 0
392 -393 0
-103 -393 0
386 393 -394 0
-50 -395 0
-72 -395 0
116 -395 0
168 -395 0
219 -395 0
251 -397 0
396 -397 0
382 -398 0
394 -398 0
395 -398 0
397 -398 0
398 -399 0
91 -399 0
-47 -400 0
-103 -400 0
-116 -400 0
-144 -400 0
-168 -400 0
-171 -400 0
-219 -400 0
333 -401 0
367 -401 0
261 -402 0
301 -402 0
400 -402 0
401 -402 0
402 -403 0
-91 -403 0
399 403 -404 0
404 -405 0
297 -405 0
44 -405 0
405 -406 0
60 -406 0
-9 -407 0
-47 -407 0
171 -407 0
407 -408 0
103 -408 0
390 -409 0
47 -409 0
-9 -410 0
410 -412 0
411 -412 0
412 -413 0
-47 -413 0
409 413 -414 0
414 -415 0
-103 -415 0
408 415 -416 0
251 -417 0
396 -417 0
416 -418 0
395 -418 0
417 -418 0
418 -419 0
91 -419 0
1 -420 0
-9 -420 0
-47 -420 0
-103 -420 0
-116 -420 0
-144 -420 0
-168 -420 0
-171 -420 0
-219 -420 0
333 -421 0
367 -421 0
420 -422 0
421 -422 0
422 -423 0
-91 -423 0
419 423 -424 0
159 -425 0
-191 -425 0
306 -426 0
424 -426 0
425 -426 0
426 -427 0
324 -427 0
427 -428 0
-60 -428 0
406 428 -429 0
429 -430 0
331 -430 0
332 -430 0
430 -431 0
85 -431 0
-50 -432 0
-72 -432 0
91 -432 0
116 -432 0
219 -432 0
391 -433 0
344 -433 0
432 -434 0
433 -434 0
434 -435 0
396 -435 0
435 -436 0
168 -436 0
-47 -437 0
-91 -437 0
-116 -437 0
-144 -437 0
-219 -437 0
347 -438 0
437 -438 0
367 -438 0
438 -439 0
-168 -439 0
436 439 -440 0
44 -441 0
60 -441 0
84 -441 0
-103 -441 0
141 -441 0
-171 -441 0
191 -441 0
-205 -441 0
328 -442 0
251 -442 0
440 -443 0
301 -443 0
297 -443 0
441 -443 0
442 -443 0
443 -444 0
351 -444 0
444 -445 0
-85 -445 0
-111 -447 0
243 -447 0
365 -449 0
364 -449 0
366 -449 0
448 -449 0
446 -450 0
309 -450 0
358 -450 0
362 -450 0
265 -450 0
449 -450 0
189 -477 0
-25 -478 0
479 -480 0
2 0
-3 0
5 0
6 0
-7 0
-8 0
10 0
11 0
12 0
-13 0
-14 0
-15 0
16 0
-18 0
19 0
-20 0
21 0
-22 0
23 0
24 0
-26 0
28 0
29 0
-30 0
31 0
-32 0
33 0
-34 0
35 0
-36 0
37 0
-38 0
39 0
-40 0
-41 0
42 0
-43 0
-45 0
46 0
48 0
49 0
-51 0
52 0
-53 0
54 0
55 0
-56 0
-57 0
58 0
59 0
-61 0
-62 0
-63 0
-64 0
65 0
66 0
67 0
69 0
-70 0
-71 0
73 0
-74 0
-75 0
76 0
77 0
-78 0
-79 0
81 0
-82 0
-83 0
-86 0
87 0
-88 0
89 0
92 0
93 0
94 0
95 0
-96 0
-97 0
98 0
99 0
100 0
101 0
102 0
104 0
105 0
-107 0
-108 0
109 0
-110 0
-112 0
113 0
-114 0
115 0
-117 0
119 0
-120 0
121 0
-122 0
-123 0
-125 0
126 0
-127 0
128 0
129 0
-130 0
-131 0
-133 0
134 0
-135 0
-136 0
137 0
-138 0
139 0
-140 0
143 0
145 0
-146 0
147 0
148 0
150 0
151 0
152 0
153 0
-154 0
155 0
156 0
157 0
158 0
-160 0
-161 0
162 0
163 0
164 0
-165 0
-166 0
-167 0
169 0
-172 0
173 0
174 0
175 0
-176 0
178 0
179 0
180 0
181 0
-182 0
-183 0
184 0
185 0
-186 0
188 0
-190 0
192 0
-193 0
-194 0
196 0
-197 0
198 0
200 0
-201 0
-202 0
-203 0
-204 0
206 0
-207 0
-208 0
209 0
-210 0
-211 0
-212 0
213 0
214 0
215 0
216 0
-217 0
218 0
220 0
-221 0
-222 0
223 0
224 0
225 0
-226 0
227 0
-228 0
229 0
231 0
-232 0
233 0
-234 0
-235 0
236 0
-237 0
238 0
-239 0
-240 0
-242 0
-244 0
-245 0
-246 0
-247 0
-249 0
250 0
-486 487 0
-476 477 0
-468 469 0
-466 467 0
-465 466 0
-464 465 0
-463 464 0
-462 464 0
-461 462 0
-460 461 0
-459 461 0
-454 455 0
-451 452 0
-450 451 0
-449 450 0
-447 450 0
-446 450 0
-445 446 0
-444 445 0
-482 483 0
-443 444 0
-471 472 0
-440 443 0
-439 440 0
-438 439 0
-436 440 0
-433 434 0
-477 478 0
-432 434 0
-430 431 0
-427 428 0
-426 427 0
-424 426 0
-421 422 0
-418 419 0
-417 418 0
-416 418 0
-414 415 0
-413 414 0
-411 412 0
-410 412 0
-408 416 0
-406 429 0
-404 405 0
-403 404 0
-402 403 0
-399 404 0
-398 399 0
-397 398 0
-144 396 0
-395 398 418 0
-394 398 0
-392 393 0
-390 392 409 0
-389 390 0
-387 388 0
-219 395 432 0
-383 385 0
-382 398 0
-381 382 0
-380 381 0
-378 379 0
-377 378 0
-386 394 0
-375 376 0
-374 375 0
-372 373 0
-429 430 0
-370 372 0
-467 469 0
-367 368 401 421 438 0
50 367 395 432 0
-50 367 0
27 366 0
90 365 0
17 364 0
-17 364 0
-428 429 0
-393 394 0
219 363 400 420 437 0
103 371 393 400 415 420 441 0
-27 366 0
-90 365 0
-391 392 433 0
-388 390 0
-435 436 0
-442 443 0
-475 476 0
-220 482 0
-385 386 0
-437 438 0
-422 423 0
-332 334 430 0
-338 341 0
-68 332 344 0
-60 303 348 406 441 0
-331 334 430 0
-330 331 0
-141 329 348 441 0
-327 334 0
-321 323 0
-419 424 0
-319 320 0
-311 312 0
-363 369 0
-310 311 0
-309 311 450 0
-307 309 0
-405 406 0
-304 306 0
-384 385 387 0
-280 281 0
-298 299 0
-300 301 0
-9 299 384 0
-328 329 349 442 0
-296 297 0
-318 319 0
-353 354 0
-401 402 0
-295 296 0
-335 354 0
-294 295 0
118 293 0
-106 292 0
-291 294 0
-373 374 0
-124 356 0
-290 297 0
-434 435 0
-91 399 419 432 0
-289 290 0
-457 458 0
230 298 0
-400 402 0
-288 289 0
-305 306 0
-276 282 0
-159 288 322 425 0
-170 328 330 0
-255 256 0
47 363 383 391 400 407 413 420 437 0
-302 303 0
-277 278 0
241 266 270 308 0
132 296 0
-407 408 0
-168 395 436 0
248 361 0
-44 302 324 348 405 441 0
-95 480 0
187 332 351 0
-285 286 0
-346 347 0
-264 265 0
-312 321 0
80 264 283 315 0
-379 382 0
-149 269 283 307 319 0
-270 271 0
-265 273 311 313 337 450 0
-308 309 0
-84 256 276 304 336 379 441 0
142 332 346 432 0
-415 416 0
-80 262 0
-241 266 0
-261 273 402 0
-260 261 0
-199 448 0
106 287 291 292 322 425 0
-266 268 284 307 319 339 0
-412 413 0
-111 277 0
-1 251 253 257 322 420 0
189 267 283 320 0
170 328 0
-349 350 0
-452 454 0
159 288 295 0
60 326 428 0
-340 341 0
-297 302 350 405 443 0
68 342 344 0
-272 273 337 0
-256 261 0
-263 264 0
-345 346 0
-252 254 0
-441 443 0
-283 284 339 0
4 262 263 0
116 363 400 420 437 0
-357 358 0
-254 255 284 0
-253 254 0
-258 259 305 380 0
-484 485 0
-191 252 348 377 441 0
-281 282 0
171 363 389 400 411 420 441 0
-313 314 0
-174 371 471 0
-420 422 0
141 330 0
-293 294 0
-337 338 0
1 251 0
-259 260 0
205 255 258 275 279 304 336 378 441 0
-282 284 316 339 0
-458 459 0
-164 363 463 0
-257 259 0
-448 449 0
-267 268 0
-469 470 0
-116 395 432 0
-320 321 0
9 300 322 384 407 410 420 0
-262 265 0
149 271 308 0
144 363 396 400 420 437 0
-271 272 0
-303 327 0
-456 457 0
-287 289 0
-273 274 0
-473 474 0
-269 272 0
-325 326 0
-286 302 0
-213 486 0
-474 475 0
-326 327 0
-352 353 0
-316 317 0
-292 293 0
-243 274 310 314 338 447 0
-350 352 0
-472 473 0
-323 325 0
-274 286 0
-279 280 0
-94 481 0
-284 285 0
-72 333 342 0
243 285 317 340 0
72 333 395 432 0
-333 334 345 401 421 0
-425 426 0
-334 335 0
-301 302 350 389 402 443 0
-336 337 0
-322 323 0
-339 340 0
-341 350 0
-342 343 0
-470 472 0
-142 343 0
-343 347 0
-344 345 433 0
44 324 0
-348 350 0
-368 369 0
-187 351 0
-268 269 0
-351 352 444 0
-314 318 0
-354 369 0
-423 424 0
84 260 281 305 381 0
-324 325 427 0
-85 335 431 0
177 355 0
-355 356 0
-356 358 0
-278 280 0
124 357 0
-103 386 408 0
-248 359 0
-359 362 0
-455 457 0
-195 360 0
91 363 403 423 437 0
-360 361 0
85 353 445 0
-361 362 0
191 253 257 322 377 380 425 0
-47 391 409 0
-483 484 0
-275 276 0
-396 397 417 435 0
-369 370 0
-31 363 468 0
45 363 460 0
-347 350 438 0
-409 414 0
-371 372 0
168 363 400 420 439 0
-171 383 388 407 411 0
-315 316 0
-453 454 0
-317 318 0
-431 446 0
-189 267 270 312 477 0
193 363 453 0
-329 331 0
-299 301 0
197 363 456 0
-251 252 349 397 417 442 0
-306 311 313 426 0
-205 258 278 0
112 363 447 0
